5493        5437
5268        5208
5175        5130
5014        4963
5250        5195
5135        5063
5246        5198
5106        5038
5454        5385
5328        527214 74 81 60 35 73 83 24 42 61  9 67 55 58 48 38 55 30 76 47  4  3 57 32 62 61 72 67 59 57 80 97 73 75 58 74 32 87  6 47 65
